/* DMU2: Objective function */

max: 14000 u1 + 21000 u2;

/* Constraints */

14000 u1 + 3500 u2 - 150 v1 - 200 v2 <= 0;
14000 u1 + 21000 u2 - 400 v1 - 700 v2 <= 0;
42000 u1 + 10500 u2 - 320 v1 - 1200 v2 <= 0;
28000 u1 + 42000 u2 - 520 v1 - 2000 v2 <= 0;
19000 u1 + 25000 u2 - 350 v1 - 1200 v2 <= 0;
14000 u1 + 15000 u2 - 320 v1 - 700 v2 <= 0;
400 v1 + 700 v2 = 1;
